Data path: /scratch/opt/lxu/CFLG/benchmarks/Kgroup_A
Instance: K100.2.red
Result path: /scratch/opt/lxu/CFLG/results/Kgroup_A
Solver: Gurobi
Time limit: 7200
Formulation: LEFPA
Cover: Large
julia --project=. src/main.jl /scratch/opt/lxu/CFLG/benchmarks/Kgroup_A K100.2.red /scratch/opt/lxu/CFLG/results/Kgroup_A Gurobi 7200 LEFPA Large
The latest version of Julia in the `release` channel is 1.11.6+0.x64.linux.gnu. You currently have `1.11.4+0.x64.linux.gnu` installed. Run:

  juliaup update

in your terminal shell to install Julia 1.11.6+0.x64.linux.gnu and update the `release` channel to that version.
/scratch/opt/lxu/CFLG/benchmarks/Kgroup_A Gurobi 7200.0 /scratch/opt/lxu/CFLG/results/Kgroup_A K100.2.red LEFPA Large
/scratch/opt/lxu/CFLG/benchmarks/Kgroup_A/K100.2.red

 read graph
data loaded


after absorb:24 24

max_piece:4
problem_graph/original graph: node: 32/24 edge: 91/83 dlt: 0.5638548684145918 break_avg_len: 0.25714260482643475 break_max_len: 0.5638543045597233Vbar/V, Ebar/E(31, 32, 90, 91)
Set parameter TokenServer to value "solice01.zib.de"
Set parameter Threads to value 1
Set parameter OutputFlag to value 1
Gurobi Optimizer version 12.0.1 build v12.0.1rc0 (linux64 - "Debian GNU/Linux 12 (bookworm)")

CPU model: Intel(R) Xeon(R) Gold 5222 CPU @ 3.80GHz, instruction set [SSE2|AVX|AVX2|AVX512]
Thread count: 8 physical cores, 16 logical processors, using up to 1 threads

Non-default parameters:
Threads  1

Optimize a model with 123 rows, 273 columns and 455 nonzeros
Model fingerprint: 0x9ba4fe9a
Coefficient statistics:
  Matrix range     [1e+00, 1e+00]
  Objective range  [1e+00, 1e+00]
  Bounds range     [1e+00, 1e+00]
  RHS range        [1e+00, 1e+00]
Presolve removed 18 rows and 26 columns
Presolve time: 0.00s
Presolved: 105 rows, 247 columns, 411 nonzeros

Iteration    Objective       Primal Inf.    Dual Inf.      Time
       0    9.1000000e+01   1.090000e+02   0.000000e+00      0s
      69    3.1000000e+01   0.000000e+00   0.000000e+00      0s

Solved in 69 iterations and 0.00 seconds (0.00 work units)
Optimal objective  3.100000000e+01

User-callback calls 148, time in user-callback 0.00 sec
elapsed CPU time: 1.005042 seconds
Set parameter TokenServer to value "solice01.zib.de"
Set parameter Threads to value 1
Set parameter OutputFlag to value 1
Set parameter MIPGap to value 0.0001
Set parameter TimeLimit to value 7198.994958

 more cuts: false 0.5638548684145918 false
is_attach:trueformulation:LEFPA0 91 32

 model loaded

Gurobi Optimizer version 12.0.1 build v12.0.1rc0 (linux64 - "Debian GNU/Linux 12 (bookworm)")

CPU model: Intel(R) Xeon(R) Gold 5222 CPU @ 3.80GHz, instruction set [SSE2|AVX|AVX2|AVX512]
Thread count: 8 physical cores, 16 logical processors, using up to 1 threads

Non-default parameters:
TimeLimit  7198.994958
Threads  1

Optimize a model with 6132 rows, 3024 columns and 17959 nonzeros
Model fingerprint: 0x11433650
Variable types: 214 continuous, 2810 integer (2810 binary)
Coefficient statistics:
  Matrix range     [1e-06, 1e+00]
  Objective range  [1e+00, 1e+00]
  Bounds range     [1e-02, 6e-01]
  RHS range        [1e-02, 1e+01]
Found heuristic solution: objective 32.0000000
Presolve removed 1586 rows and 286 columns
Presolve time: 0.05s
Presolved: 4546 rows, 2738 columns, 15183 nonzeros
Variable types: 122 continuous, 2616 integer (2616 binary)

Root relaxation: objective 2.000000e+00, 1675 iterations, 0.04 seconds (0.06 work units)

    Nodes    |    Current Node    |     Objective Bounds      |     Work
 Expl Unexpl |  Obj  Depth IntInf | Incumbent    BestBd   Gap | It/Node Time

     0     0    2.00000    0   51   32.00000    2.00000  93.8%     -    0s
H    0     0                       9.0000000    2.00000  77.8%     -    0s
H    0     0                       8.0000000    2.00000  75.0%     -    0s
H    0     0                       5.0000000    2.00000  60.0%     -    0s
     0     0    2.03756    0   93    5.00000    2.03756  59.2%     -    0s
     0     0    2.03960    0  117    5.00000    2.03960  59.2%     -    0s
     0     0    2.20889    0  263    5.00000    2.20889  55.8%     -    0s
     0     0    2.23316    0  274    5.00000    2.23316  55.3%     -    0s
     0     0    2.60177    0  201    5.00000    2.60177  48.0%     -    0s
     0     0    2.61702    0  227    5.00000    2.61702  47.7%     -    0s
     0     0    2.61766    0  207    5.00000    2.61766  47.6%     -    0s
     0     0    2.61766    0  207    5.00000    2.61766  47.6%     -    0s
     0     0    2.66667    0  186    5.00000    2.66667  46.7%     -    0s
     0     0    2.67857    0  168    5.00000    2.67857  46.4%     -    0s
     0     0    2.67857    0  171    5.00000    2.67857  46.4%     -    0s
     0     0    2.70000    0  172    5.00000    2.70000  46.0%     -    0s
     0     0    2.70000    0  174    5.00000    2.70000  46.0%     -    0s
     0     0    2.70000    0  176    5.00000    2.70000  46.0%     -    1s
     0     0    2.70000    0  217    5.00000    2.70000  46.0%     -    1s
     0     0    2.70000    0  206    5.00000    2.70000  46.0%     -    1s
     0     0    2.70000    0  218    5.00000    2.70000  46.0%     -    1s
     0     0    2.70000    0  191    5.00000    2.70000  46.0%     -    1s
     0     0    2.70000    0  187    5.00000    2.70000  46.0%     -    1s
     0     0    2.70000    0  176    5.00000    2.70000  46.0%     -    1s
     0     0    2.70000    0  154    5.00000    2.70000  46.0%     -    1s
     0     0    2.70000    0  185    5.00000    2.70000  46.0%     -    1s
     0     0    2.70000    0  173    5.00000    2.70000  46.0%     -    1s
     0     0    2.70000    0  173    5.00000    2.70000  46.0%     -    2s
     0     2    2.75000    0  140    5.00000    2.75000  45.0%     -    2s
*   98    13              15       4.0000000    3.00000  25.0%   101    2s

Cutting planes:
  Learned: 62
  Cover: 107
  Implied bound: 48
  Clique: 46
  MIR: 214
  StrongCG: 6
  GUB cover: 1
  Inf proof: 2
  Zero half: 8
  RLT: 21
  Relax-and-lift: 35
  BQP: 10
  PSD: 14

Explored 198 nodes (58157 simplex iterations) in 3.72 seconds (4.46 work units)
Thread count was 1 (of 16 available processors)

Solution count 5: 4 5 8 ... 32

Optimal solution found (tolerance 1.00e-04)
Best objective 4.000000000000e+00, best bound 4.000000000000e+00, gap 0.0000%

User-callback calls 2300, time in user-callback 0.00 sec

 sepatime0 0 0
4.0
Stat(MathOptInterface.OPTIMAL, 4.0, 4.0, 0.0, 0.0, 1.005042, 3.7158279418945312, 198, Main.CFLG.LEFPA, "", #undef)
